
  32    4
  10   10   10   10

   0   0   0   0   0   2 2 5 
   8   1   0   1   3   1 3 
   4   5   0   5   5   3 7 6 4 
   9   0   1   6   4   2 9 8 
   4   5   0   4   4   2 9 8 
   5   5   5   2   0   2 13 9 
   7   0   3   4   2   1 8 
   2   6   0   4   5   4 13 12 11 10 
  10   5   0   4   4   3 12 11 10 
   5   5   5   3   0   2 15 14 
   2   3   5   0   2   2 15 14 
   2   3   2   0  10   2 15 14 
  10   4   3   5   0   2 15 14 
   1   4   2   4   0   2 17 16 
   8   2   0   3   5   1 16 
   5   8   3   5   0   2 23 18 
   7   4   0   4   4   2 23 18 
   9   3   2   0   1   2 21 19 
   8   0   5   5   4   1 20 
   7   3   0   6   4   2 24 22 
   6   3   5   0   5   2 25 24 
   6   0   5   5   4   2 29 25 
   3   2   0   4   7   2 29 25 
   5   2   5   0   3   3 29 27 26 
   6   9   7   0   3   2 27 26 
   4   4   4   0   3   2 30 28 
  10   5   0   7   2   2 31 30 
   6   4   5   2   0   1 31 
   7   4   3   2   0   1 30 
   1   2   7   3   0   1 32
   6   3   3   0   4   1 32
   0   0   0   0   0   0 
